\ENCODING=ISO-8859-1
\Problem name: ilog.cplex

Minimize
 obj1: 106535 x1 + 102204 x2 + 104899 x3 + 109942 x4 + 97868 x5 + 109103 x6
       + 101833 x7 + 101187 x8 + 94994 x9 + 104995 x10 + 102886 x11
       + 108147 x12 + 109490 x13 + 95727 x14 + 96117 x15 + 96672 x16
       + 90367 x17 + 108550 x18 + 104243 x19 + 103869 x20 + 105162 x21
       + 99510 x22 + 102854 x23 + 106268 x24 + 95738 x25 + 101776 x26
       + 94594 x27 + 99077 x28 + 91727 x29 + 109232 x30 + 108148 x31
       + 102089 x32 + 107725 x33 + 109794 x34 + 99304 x35 + 105785 x36
       + 109099 x37 + 103748 x38 + 105459 x39 + 99824 x40 + 105680 x41
       + 103815 x42 + 104632 x43 + 105304 x44 + 102619 x45 + 95709 x46
       + 95399 x47 + 102081 x48 + 103328 x49 + 100609 x50 + 104302 x51
       + 90209 x52 + 97183 x53 + 109802 x54 + 101649 x55 + 95214 x56
       + 109167 x57 + 107311 x58 + 109580 x59 + 103632 x60 + 107229 x61
       + 92028 x62 + 107024 x63 + 108964 x64 + 104501 x65 + 103412 x66
       + 105958 x67 + 91879 x68 + 104251 x69 + 95408 x70 + 104176 x71
       + 94938 x72 + 107896 x73 + 97381 x74 + 97472 x75 + 96395 x76 + 98295 x77
       + 104768 x78 + 96554 x79 + 100607 x80 + 96505 x81 + 108294 x82
       + 102350 x83 + 104123 x84 + 106262 x85 + 92501 x86 + 102263 x87
       + 103789 x88 + 107221 x89 + 91861 x90 + 99500 x91 + 105976 x92
       + 95320 x93 + 105880 x94 + 97775 x95 + 94545 x96 + 96637 x97
       + 103371 x98 + 94472 x99 + 99213 x100 + 95710 x101 + 100693 x102
       + 97086 x103 + 107494 x104 + 104431 x105 + 94931 x106 + 91698 x107
       + 99361 x108 + 95267 x109 + 100366 x110 + 106567 x111 + 91135 x112
       + 92862 x113 + 97626 x114 + 101207 x115 + 91207 x116 + 108754 x117
       + 104700 x118 + 95369 x119 + 90192 x120 + 104697 x121 + 105850 x122
       + 100506 x123 + 98570 x124 + 94916 x125 + 107526 x126 + 92558 x127
       + 101378 x128 + 104120 x129 + 97694 x130 + 98303 x131 + 108410 x132
       + 92811 x133 + 99193 x134 + 92511 x135 + 95374 x136 + 101774 x137
       + 92606 x138 + 103815 x139 + 109186 x140 + 93555 x141 + 99635 x142
       + 103445 x143 + 108840 x144 + 100350 x145 + 104061 x146 + 102900 x147
       + 92245 x148 + 104924 x149 + 104111 x150 + 97447 x151 + 108965 x152
       + 98910 x153 + 92016 x154 + 97930 x155 + 93249 x156 + 98072 x157
       + 97284 x158 + 91975 x159 + 105626 x160 + 93333 x161 + 102166 x162
       + 101513 x163 + 100829 x164 + 91038 x165 + 104374 x166 + 90461 x167
       + 103054 x168 + 106207 x169 + 107327 x170 + 92093 x171 + 96240 x172
       + 102812 x173 + 104155 x174 + 105787 x175 + 94962 x176 + 99401 x177
       + 102112 x178 + 93406 x179 + 92175 x180 + 108898 x181 + 102006 x182
       + 97895 x183 + 108202 x184 + 106605 x185 + 100712 x186 + 109685 x187
       + 109088 x188 + 106212 x189 + 103907 x190 + 100115 x191 + 101906 x192
       + 90060 x193 + 100878 x194 + 105287 x195 + 109531 x196 + 106947 x197
       + 103596 x198 + 98679 x199 + 98134 x200 + 96848 x201 + 103013 x202
       + 98483 x203 + 94227 x204 + 90983 x205 + 96033 x206 + 98741 x207
       + 105376 x208 + 107689 x209 + 93635 x210 + 95014 x211 + 99155 x212
       + 106100 x213 + 98105 x214 + 103669 x215 + 96345 x216 + 92767 x217
       + 93680 x218 + 109193 x219 + 109614 x220 + 107571 x221 + 92839 x222
       + 103342 x223 + 109562 x224 + 105354 x225 + 105305 x226 + 92964 x227
       + 96004 x228 + 94116 x229 + 94620 x230 + 104806 x231 + 104693 x232
       + 101925 x233 + 100483 x234 + 102160 x235 + 100776 x236 + 91560 x237
       + 98925 x238 + 100457 x239 + 102044 x240 + 104441 x241 + 107007 x242
       + 106713 x243 + 97384 x244 + 93533 x245 + 93834 x246 + 91206 x247
       + 98825 x248 + 98698 x249 + 95536 x250 + 108257 x251 + 102357 x252
       + 101686 x253 + 108207 x254 + 90263 x255 + 99900 x256 + 92261 x257
       + 106945 x258 + 101944 x259 + 105371 x260 + 101831 x261 + 108058 x262
       + 90791 x263 + 91625 x264 + 90572 x265 + 100098 x266 + 107362 x267
       + 103740 x268 + 104060 x269 + 108211 x270 + 97782 x271 + 102434 x272
       + 97955 x273 + 101411 x274 + 98521 x275 + 106164 x276 + 106051 x277
       + 100690 x278 + 99975 x279 + 104524 x280 + 105122 x281 + 108496 x282
       + 106819 x283 + 95241 x284 + 109209 x285 + 90098 x286 + 105131 x287
       + 102455 x288 + 95877 x289 + 103011 x290 + 108986 x291 + 104860 x292
       + 107434 x293 + 91946 x294 + 102496 x295 + 98916 x296 + 101264 x297
       + 103608 x298 + 97212 x299 + 104522 x300 + 108386 x301 + 105477 x302
       + 102734 x303 + 106530 x304 + 93770 x305 + 100596 x306 + 94624 x307
       + 99284 x308 + 104391 x309 + 102371 x310 + 104231 x311 + 99530 x312
       + 94942 x313 + 96777 x314 + 99054 x315 + 94578 x316 + 91055 x317
       + 106396 x318 + 103689 x319 + 93493 x320 + 97452 x321 + 104583 x322
       + 95573 x323 + 90603 x324 + 94658 x325 + 106782 x326 + 98513 x327
       + 100015 x328 + 91798 x329 + 91245 x330 + 103526 x331 + 104484 x332
       + 95896 x333 + 98812 x334 + 99645 x335 + 92196 x336 + 96496 x337
       + 109335 x338 + 106132 x339 + 105801 x340 + 108543 x341 + 91000 x342
       + 101905 x343 + 99479 x344 + 106153 x345 + 108020 x346 + 108054 x347
       + 91847 x348 + 95234 x349 + 92004 x350 + 92853 x351 + 96386 x352
       + 95022 x353 + 96053 x354 + 106107 x355 + 101446 x356 + 107057 x357
       + 106237 x358 + 105403 x359 + 94507 x360 + 94946 x361 + 90642 x362
       + 91099 x363 + 95477 x364 + 105153 x365 + 93924 x366 + 99078 x367
       + 103267 x368 + 92869 x369 + 99528 x370 + 97367 x371 + 96369 x372
       + 108422 x373 + 106426 x374 + 92456 x375 + 108951 x376 + 90955 x377
       + 95377 x378 + 92045 x379 + 101651 x380 + 93767 x381 + 103795 x382
       + 106456 x383 + 102467 x384 + 104019 x385 + 99867 x386 + 97042 x387
       + 105048 x388 + 98454 x389 + 103799 x390 + 96676 x391 + 99233 x392
       + 96292 x393 + 106897 x394 + 94768 x395 + 91804 x396 + 90671 x397
       + 107614 x398 + 97225 x399 + 94187 x400 + 108258 x401 + 108359 x402
       + 92281 x403 + 97377 x404 + 91397 x405 + 103905 x406 + 99454 x407
       + 104544 x408 + 107599 x409 + 91403 x410 + 103126 x411 + 97387 x412
       + 92713 x413 + 102681 x414 + 100417 x415 + 94976 x416 + 98774 x417
       + 97240 x418 + 104347 x419 + 94771 x420 + 94917 x421 + 107531 x422
       + 106764 x423 + 91565 x424 + 90496 x425 + 94982 x426 + 90959 x427
       + 97403 x428 + 109821 x429 + 107806 x430 + 102345 x431 + 92912 x432
       + 107295 x433 + 98123 x434 + 90324 x435 + 104751 x436 + 106771 x437
       + 102890 x438 + 104760 x439 + 98720 x440 + 99587 x441 + 100907 x442
       + 106449 x443 + 103569 x444 + 102008 x445 + 106367 x446 + 92564 x447
       + 96662 x448 + 94692 x449 + 108439 x450 + 95844 x451 + 104416 x452
       + 107567 x453 + 100764 x454 + 95616 x455 + 104054 x456 + 90115 x457
       + 91552 x458 + 106009 x459 + 95891 x460 + 107783 x461 + 100591 x462
       + 94954 x463 + 93360 x464 + 93109 x465 + 97105 x466 + 107502 x467
       + 104655 x468 + 92514 x469 + 97208 x470 + 98394 x471 + 104344 x472
       + 101995 x473 + 91402 x474 + 99167 x475 + 99696 x476 + 108977 x477
       + 98281 x478 + 103156 x479 + 100039 x480 + 94613 x481 + 107253 x482
       + 106285 x483 + 95332 x484 + 93204 x485 + 91216 x486 + 96733 x487
       + 93559 x488 + 98384 x489 + 103891 x490 + 102344 x491 + 95678 x492
       + 109318 x493 + 105946 x494 + 101090 x495 + 101503 x496 + 104447 x497
       + 109007 x498 + 96937 x499 - 94678 x500 + 39654 x501 + 42380 x502
       + 39476 x503 + 43235 x504 + 36552 x505 + 42887 x506 + 37181 x507
       + 38712 x508 + 42280 x509 + 37761 x510 + 40970 x511 + 43467 x512
       + 37917 x513 + 42466 x514 + 37727 x515 + 43867 x516 + 43929 x517
       + 40460 x518 + 40472 x519 + 40447 x520 + 39204 x521 + 40319 x522
       + 42861 x523 + 40782 x524 + 37497 x525 + 37844 x526 + 39042 x527
       + 41411 x528 + 42452 x529 + 38414 x530 + 37428 x531 + 38439 x532
       + 43332 x533 + 40269 x534 + 43257 x535 + 38206 x536 + 43256 x537
       + 39490 x538 + 39884 x539 + 37902 x540 + 42226 x541 + 36373 x542
       + 38568 x543 + 43291 x544 + 40375 x545 + 36497 x546 + 43096 x547
       + 42695 x548 + 42859 x549 + 20891 x550
Subject To
 c1:   x7 - x9 - x16 + x19 - x21 + x25 + x36 - x41 - x43 - x44  = 1
 c2:   x57 - x59 - x66 + x69 - x71 + x75 + x86 - x91 - x93 - x94  = 0
 c3:   x107 - x109 - x116 + x119 - x121 + x125 + x136 - x141 - x143 - x144  = 1
 c4:   x157 - x159 - x166 + x169 - x171 + x175 + x186 - x191 - x193 - x194  = 0
 c5:   x207 - x209 - x216 + x219 - x221 + x225 + x236 - x241 - x243 - x244  = 0
 c6:   x257 - x259 - x266 + x269 - x271 + x275 + x286 - x291 - x293 - x294  = 0
 c7:   x307 - x309 - x316 + x319 - x321 + x325 + x336 - x341 - x343 - x344  = 0
 c8:   x357 - x359 - x366 + x369 - x371 + x375 + x386 - x391 - x393 - x394  = 0
 c9:   x407 - x409 - x416 + x419 - x421 + x425 + x436 - x441 - x443 - x444  = 0
 c10:  x457 - x459 - x466 + x469 - x471 + x475 + x486 - x491 - x493 - x494  = 0
 c11:  x1 + x3 + x9 - x22 - x33  = 0
 c12:  x51 + x53 + x59 - x72 - x83  = 0
 c13:  x101 + x103 + x109 - x122 - x133  = 0
 c14:  x151 + x153 + x159 - x172 - x183  = 0
 c15:  x201 + x203 + x209 - x222 - x233  = 0
 c16:  x251 + x253 + x259 - x272 - x283  = 0
 c17:  x301 + x303 + x309 - x322 - x333  = 0
 c18:  x351 + x353 + x359 - x372 - x383  = 0
 c19:  x401 + x403 + x409 - x422 - x433  = 0
 c20:  x451 + x453 + x459 - x472 - x483  = 0
 c21:  - x20 - x30 + x35 + x40  = 0
 c22:  - x70 - x80 + x85 + x90  = 0
 c23:  - x120 - x130 + x135 + x140  = 0
 c24:  - x170 - x180 + x185 + x190  = 0
 c25:  - x220 - x230 + x235 + x240  = 0
 c26:  - x270 - x280 + x285 + x290  = 0
 c27:  - x320 - x330 + x335 + x340  = 0
 c28:  - x370 - x380 + x385 + x390  = -1
 c29:  - x420 - x430 + x435 + x440  = 0
 c30:  - x470 - x480 + x485 + x490  = 0
 c31:  x5 + x16 - x34 - x42  = -1
 c32:  x55 + x66 - x84 - x92  = 0
 c33:  x105 + x116 - x134 - x142  = 0
 c34:  x155 + x166 - x184 - x192  = 0
 c35:  x205 + x216 - x234 - x242  = 0
 c36:  x255 + x266 - x284 - x292  = 0
 c37:  x305 + x316 - x334 - x342  = 0
 c38:  x355 + x366 - x384 - x392  = 1
 c39:  x405 + x416 - x434 - x442  = 0
 c40:  x455 + x466 - x484 - x492  = 0
 c41:  x2 + x4 + x6 - x13 + x24 + x33 - x36 + x42 + x44 - x45 - x46 + x49  = 0
 c42:  x52 + x54 + x56 - x63 + x74 + x83 - x86 + x92 + x94 - x95 - x96 + x99
        = 0
 c43:  x102 + x104 + x106 - x113 + x124 + x133 - x136 + x142 + x144 - x145
       - x146 + x149  = 0
 c44:  x152 + x154 + x156 - x163 + x174 + x183 - x186 + x192 + x194 - x195
       - x196 + x199  = 0
 c45:  x202 + x204 + x206 - x213 + x224 + x233 - x236 + x242 + x244 - x245
       - x246 + x249  = -1
 c46:  x252 + x254 + x256 - x263 + x274 + x283 - x286 + x292 + x294 - x295
       - x296 + x299  = 0
 c47:  x302 + x304 + x306 - x313 + x324 + x333 - x336 + x342 + x344 - x345
       - x346 + x349  = 0
 c48:  x352 + x354 + x356 - x363 + x374 + x383 - x386 + x392 + x394 - x395
       - x396 + x399  = 0
 c49:  x402 + x404 + x406 - x413 + x424 + x433 - x436 + x442 + x444 - x445
       - x446 + x449  = 0
 c50:  x452 + x454 + x456 - x463 + x474 + x483 - x486 + x492 + x494 - x495
       - x496 + x499  = 0
 c51:  - x7 - x10 - x12 + x30 - x35 + x46 + x47  = 0
 c52:  - x57 - x60 - x62 + x80 - x85 + x96 + x97  = 0
 c53:  - x107 - x110 - x112 + x130 - x135 + x146 + x147  = 0
 c54:  - x157 - x160 - x162 + x180 - x185 + x196 + x197  = 0
 c55:  - x207 - x210 - x212 + x230 - x235 + x246 + x247  = 0
 c56:  - x257 - x260 - x262 + x280 - x285 + x296 + x297  = 0
 c57:  - x307 - x310 - x312 + x330 - x335 + x346 + x347  = 0
 c58:  - x357 - x360 - x362 + x380 - x385 + x396 + x397  = 0
 c59:  - x407 - x410 - x412 + x430 - x435 + x446 + x447  = 1
 c60:  - x457 - x460 - x462 + x480 - x485 + x496 + x497  = 0
 c61:  - x14 - x23 + x27 - x29 + x45 + x50  = 0
 c62:  - x64 - x73 + x77 - x79 + x95 + x100  = 0
 c63:  - x114 - x123 + x127 - x129 + x145 + x150  = 0
 c64:  - x164 - x173 + x177 - x179 + x195 + x200  = 1
 c65:  - x214 - x223 + x227 - x229 + x245 + x250  = 0
 c66:  - x264 - x273 + x277 - x279 + x295 + x300  = 0
 c67:  - x314 - x323 + x327 - x329 + x345 + x350  = 0
 c68:  - x364 - x373 + x377 - x379 + x395 + x400  = 0
 c69:  - x414 - x423 + x427 - x429 + x445 + x450  = 0
 c70:  - x464 - x473 + x477 - x479 + x495 + x500  = 0
 c71:  - x3 - x6 - x17 - x18 + x21 - x25 + x37 - x38  = 0
 c72:  - x53 - x56 - x67 - x68 + x71 - x75 + x87 - x88  = 0
 c73:  - x103 - x106 - x117 - x118 + x121 - x125 + x137 - x138  = 0
 c74:  - x153 - x156 - x167 - x168 + x171 - x175 + x187 - x188  = 0
 c75:  - x203 - x206 - x217 - x218 + x221 - x225 + x237 - x238  = 0
 c76:  - x253 - x256 - x267 - x268 + x271 - x275 + x287 - x288  = 0
 c77:  - x303 - x306 - x317 - x318 + x321 - x325 + x337 - x338  = 0
 c78:  - x353 - x356 - x367 - x368 + x371 - x375 + x387 - x388  = 0
 c79:  - x403 - x406 - x417 - x418 + x421 - x425 + x437 - x438  = -1
 c80:  - x453 - x456 - x467 - x468 + x471 - x475 + x487 - x488  = 0
 c81:  - x1 - x11 + x23 - x26 - x40 - x47  = 0
 c82:  - x51 - x61 + x73 - x76 - x90 - x97  = -1
 c83:  - x101 - x111 + x123 - x126 - x140 - x147  = 0
 c84:  - x151 - x161 + x173 - x176 - x190 - x197  = 0
 c85:  - x201 - x211 + x223 - x226 - x240 - x247  = 0
 c86:  - x251 - x261 + x273 - x276 - x290 - x297  = 0
 c87:  - x301 - x311 + x323 - x326 - x340 - x347  = 0
 c88:  - x351 - x361 + x373 - x376 - x390 - x397  = 0
 c89:  - x401 - x411 + x423 - x426 - x440 - x447  = 0
 c90:  - x451 - x461 + x473 - x476 - x490 - x497  = 0
 c91:  - x5 + x14 + x15 + x20 + x26 - x28 + x34 - x37 - x50  = 0
 c92:  - x55 + x64 + x65 + x70 + x76 - x78 + x84 - x87 - x100  = 1
 c93:  - x105 + x114 + x115 + x120 + x126 - x128 + x134 - x137 - x150  = 0
 c94:  - x155 + x164 + x165 + x170 + x176 - x178 + x184 - x187 - x200  = 0
 c95:  - x205 + x214 + x215 + x220 + x226 - x228 + x234 - x237 - x250  = 0
 c96:  - x255 + x264 + x265 + x270 + x276 - x278 + x284 - x287 - x300  = 0
 c97:  - x305 + x314 + x315 + x320 + x326 - x328 + x334 - x337 - x350  = 0
 c98:  - x355 + x364 + x365 + x370 + x376 - x378 + x384 - x387 - x400  = 0
 c99:  - x405 + x414 + x415 + x420 + x426 - x428 + x434 - x437 - x450  = 0
 c100: - x455 + x464 + x465 + x470 + x476 - x478 + x484 - x487 - x500  = 0
 c101: - x2 - x15 + x17 - x27 + x29 - x32 - x39 + x41 + x48  = 0
 c102: - x52 - x65 + x67 - x77 + x79 - x82 - x89 + x91 + x98  = 0
 c103: - x102 - x115 + x117 - x127 + x129 - x132 - x139 + x141 + x148  = 0
 c104: - x152 - x165 + x167 - x177 + x179 - x182 - x189 + x191 + x198  = -1
 c105: - x202 - x215 + x217 - x227 + x229 - x232 - x239 + x241 + x248  = 0
 c106: - x252 - x265 + x267 - x277 + x279 - x282 - x289 + x291 + x298  = 0
 c107: - x302 - x315 + x317 - x327 + x329 - x332 - x339 + x341 + x348  = 0
 c108: - x352 - x365 + x367 - x377 + x379 - x382 - x389 + x391 + x398  = 0
 c109: - x402 - x415 + x417 - x427 + x429 - x432 - x439 + x441 + x448  = 0
 c110: - x452 - x465 + x467 - x477 + x479 - x482 - x489 + x491 + x498  = -1
 c111: x8 + x10 + x13 - x19 + x28 - x31 + x38 + x39 + x43 - x48 - x49  = 0
 c112: x58 + x60 + x63 - x69 + x78 - x81 + x88 + x89 + x93 - x98 - x99  = 0
 c113: x108 + x110 + x113 - x119 + x128 - x131 + x138 + x139 + x143 - x148
       - x149  = 0
 c114: x158 + x160 + x163 - x169 + x178 - x181 + x188 + x189 + x193 - x198
       - x199  = 0
 c115: x208 + x210 + x213 - x219 + x228 - x231 + x238 + x239 + x243 - x248
       - x249  = 0
 c116: x258 + x260 + x263 - x269 + x278 - x281 + x288 + x289 + x293 - x298
       - x299  = 0
 c117: x308 + x310 + x313 - x319 + x328 - x331 + x338 + x339 + x343 - x348
       - x349  = 0
 c118: x358 + x360 + x363 - x369 + x378 - x381 + x388 + x389 + x393 - x398
       - x399  = 0
 c119: x408 + x410 + x413 - x419 + x428 - x431 + x438 + x439 + x443 - x448
       - x449  = 0
 c120: x458 + x460 + x463 - x469 + x478 - x481 + x488 + x489 + x493 - x498
       - x499  = 0
 c121: - x24  = 0
 c122: - x74  = 0
 c123: - x124  = -1
 c124: - x174  = 0
 c125: - x224  = 0
 c126: - x274  = 0
 c127: - x324  = 0
 c128: - x374  = 0
 c129: - x424  = 0
 c130: - x474  = 0
 c131: - x8 + x12 + x22 + x31 + x32  = 0
 c132: - x58 + x62 + x72 + x81 + x82  = 0
 c133: - x108 + x112 + x122 + x131 + x132  = 0
 c134: - x158 + x162 + x172 + x181 + x182  = 0
 c135: - x208 + x212 + x222 + x231 + x232  = 1
 c136: - x258 + x262 + x272 + x281 + x282  = -1
 c137: - x308 + x312 + x322 + x331 + x332  = 1
 c138: - x358 + x362 + x372 + x381 + x382  = 0
 c139: - x408 + x412 + x422 + x431 + x432  = 0
 c140: - x458 + x462 + x472 + x481 + x482  = 0
 c141: - x4 + x11 + x18  = 0
 c142: - x54 + x61 + x68  = 0
 c143: - x104 + x111 + x118  = 0
 c144: - x154 + x161 + x168  = 0
 c145: - x204 + x211 + x218  = 0
 c146: - x254 + x261 + x268  = 1
 c147: - x304 + x311 + x318  = -1
 c148: - x354 + x361 + x368  = 0
 c149: - x404 + x411 + x418  = 0
 c150: - x454 + x461 + x468  = 1
 c151: 4 x1 + 4 x51 + 4 x101 + 4 x151 + 4 x201 + 4 x251 + 4 x301 + 4 x351
       + 4 x401 + 4 x451 - 5 x501 <= 0
 c152: 4 x2 + 4 x52 + 4 x102 + 4 x152 + 4 x202 + 4 x252 + 4 x302 + 4 x352
       + 4 x402 + 4 x452 - 5 x502 <= 0
 c153: 4 x3 + 4 x53 + 4 x103 + 4 x153 + 4 x203 + 4 x253 + 4 x303 + 4 x353
       + 4 x403 + 4 x453 - 5 x503 <= 0
 c154: 4 x4 + 4 x54 + 4 x104 + 4 x154 + 4 x204 + 4 x254 + 4 x304 + 4 x354
       + 4 x404 + 4 x454 - 5 x504 <= 0
 c155: 4 x5 + 4 x55 + 4 x105 + 4 x155 + 4 x205 + 4 x255 + 4 x305 + 4 x355
       + 4 x405 + 4 x455 - 5 x505 <= 0
 c156: 4 x6 + 4 x56 + 4 x106 + 4 x156 + 4 x206 + 4 x256 + 4 x306 + 4 x356
       + 4 x406 + 4 x456 - 5 x506 <= 0
 c157: 4 x7 + 4 x57 + 4 x107 + 4 x157 + 4 x207 + 4 x257 + 4 x307 + 4 x357
       + 4 x407 + 4 x457 - 5 x507 <= 0
 c158: 4 x8 + 4 x58 + 4 x108 + 4 x158 + 4 x208 + 4 x258 + 4 x308 + 4 x358
       + 4 x408 + 4 x458 - 5 x508 <= 0
 c159: 4 x9 + 4 x59 + 4 x109 + 4 x159 + 4 x209 + 4 x259 + 4 x309 + 4 x359
       + 4 x409 + 4 x459 - 5 x509 <= 0
 c160: 4 x10 + 4 x60 + 4 x110 + 4 x160 + 4 x210 + 4 x260 + 4 x310 + 4 x360
       + 4 x410 + 4 x460 - 5 x510 <= 0
 c161: 4 x11 + 4 x61 + 4 x111 + 4 x161 + 4 x211 + 4 x261 + 4 x311 + 4 x361
       + 4 x411 + 4 x461 - 5 x511 <= 0
 c162: 4 x12 + 4 x62 + 4 x112 + 4 x162 + 4 x212 + 4 x262 + 4 x312 + 4 x362
       + 4 x412 + 4 x462 - 5 x512 <= 0
 c163: 4 x13 + 4 x63 + 4 x113 + 4 x163 + 4 x213 + 4 x263 + 4 x313 + 4 x363
       + 4 x413 + 4 x463 - 5 x513 <= 0
 c164: 4 x14 + 4 x64 + 4 x114 + 4 x164 + 4 x214 + 4 x264 + 4 x314 + 4 x364
       + 4 x414 + 4 x464 - 5 x514 <= 0
 c165: 4 x15 + 4 x65 + 4 x115 + 4 x165 + 4 x215 + 4 x265 + 4 x315 + 4 x365
       + 4 x415 + 4 x465 - 5 x515 <= 0
 c166: 4 x16 + 4 x66 + 4 x116 + 4 x166 + 4 x216 + 4 x266 + 4 x316 + 4 x366
       + 4 x416 + 4 x466 - 5 x516 <= 0
 c167: 4 x17 + 4 x67 + 4 x117 + 4 x167 + 4 x217 + 4 x267 + 4 x317 + 4 x367
       + 4 x417 + 4 x467 - 5 x517 <= 0
 c168: 4 x18 + 4 x68 + 4 x118 + 4 x168 + 4 x218 + 4 x268 + 4 x318 + 4 x368
       + 4 x418 + 4 x468 - 5 x518 <= 0
 c169: 4 x19 + 4 x69 + 4 x119 + 4 x169 + 4 x219 + 4 x269 + 4 x319 + 4 x369
       + 4 x419 + 4 x469 - 5 x519 <= 0
 c170: 4 x20 + 4 x70 + 4 x120 + 4 x170 + 4 x220 + 4 x270 + 4 x320 + 4 x370
       + 4 x420 + 4 x470 - 5 x520 <= 0
 c171: 4 x21 + 4 x71 + 4 x121 + 4 x171 + 4 x221 + 4 x271 + 4 x321 + 4 x371
       + 4 x421 + 4 x471 - 5 x521 <= 0
 c172: 4 x22 + 4 x72 + 4 x122 + 4 x172 + 4 x222 + 4 x272 + 4 x322 + 4 x372
       + 4 x422 + 4 x472 - 5 x522 <= 0
 c173: 4 x23 + 4 x73 + 4 x123 + 4 x173 + 4 x223 + 4 x273 + 4 x323 + 4 x373
       + 4 x423 + 4 x473 - 5 x523 <= 0
 c174: 4 x24 + 4 x74 + 4 x124 + 4 x174 + 4 x224 + 4 x274 + 4 x324 + 4 x374
       + 4 x424 + 4 x474 - 5 x524 <= 0
 c175: 4 x25 + 4 x75 + 4 x125 + 4 x175 + 4 x225 + 4 x275 + 4 x325 + 4 x375
       + 4 x425 + 4 x475 - 5 x525 <= 0
 c176: 4 x26 + 4 x76 + 4 x126 + 4 x176 + 4 x226 + 4 x276 + 4 x326 + 4 x376
       + 4 x426 + 4 x476 - 5 x526 <= 0
 c177: 4 x27 + 4 x77 + 4 x127 + 4 x177 + 4 x227 + 4 x277 + 4 x327 + 4 x377
       + 4 x427 + 4 x477 - 5 x527 <= 0
 c178: 4 x28 + 4 x78 + 4 x128 + 4 x178 + 4 x228 + 4 x278 + 4 x328 + 4 x378
       + 4 x428 + 4 x478 - 5 x528 <= 0
 c179: 4 x29 + 4 x79 + 4 x129 + 4 x179 + 4 x229 + 4 x279 + 4 x329 + 4 x379
       + 4 x429 + 4 x479 - 5 x529 <= 0
 c180: 4 x30 + 4 x80 + 4 x130 + 4 x180 + 4 x230 + 4 x280 + 4 x330 + 4 x380
       + 4 x430 + 4 x480 - 5 x530 <= 0
 c181: 4 x31 + 4 x81 + 4 x131 + 4 x181 + 4 x231 + 4 x281 + 4 x331 + 4 x381
       + 4 x431 + 4 x481 - 5 x531 <= 0
 c182: 4 x32 + 4 x82 + 4 x132 + 4 x182 + 4 x232 + 4 x282 + 4 x332 + 4 x382
       + 4 x432 + 4 x482 - 5 x532 <= 0
 c183: 4 x33 + 4 x83 + 4 x133 + 4 x183 + 4 x233 + 4 x283 + 4 x333 + 4 x383
       + 4 x433 + 4 x483 - 5 x533 <= 0
 c184: 4 x34 + 4 x84 + 4 x134 + 4 x184 + 4 x234 + 4 x284 + 4 x334 + 4 x384
       + 4 x434 + 4 x484 - 5 x534 <= 0
 c185: 4 x35 + 4 x85 + 4 x135 + 4 x185 + 4 x235 + 4 x285 + 4 x335 + 4 x385
       + 4 x435 + 4 x485 - 5 x535 <= 0
 c186: 4 x36 + 4 x86 + 4 x136 + 4 x186 + 4 x236 + 4 x286 + 4 x336 + 4 x386
       + 4 x436 + 4 x486 - 5 x536 <= 0
 c187: 4 x37 + 4 x87 + 4 x137 + 4 x187 + 4 x237 + 4 x287 + 4 x337 + 4 x387
       + 4 x437 + 4 x487 - 5 x537 <= 0
 c188: 4 x38 + 4 x88 + 4 x138 + 4 x188 + 4 x238 + 4 x288 + 4 x338 + 4 x388
       + 4 x438 + 4 x488 - 5 x538 <= 0
 c189: 4 x39 + 4 x89 + 4 x139 + 4 x189 + 4 x239 + 4 x289 + 4 x339 + 4 x389
       + 4 x439 + 4 x489 - 5 x539 <= 0
 c190: 4 x40 + 4 x90 + 4 x140 + 4 x190 + 4 x240 + 4 x290 + 4 x340 + 4 x390
       + 4 x440 + 4 x490 - 5 x540 <= 0
 c191: 4 x41 + 4 x91 + 4 x141 + 4 x191 + 4 x241 + 4 x291 + 4 x341 + 4 x391
       + 4 x441 + 4 x491 - 5 x541 <= 0
 c192: 4 x42 + 4 x92 + 4 x142 + 4 x192 + 4 x242 + 4 x292 + 4 x342 + 4 x392
       + 4 x442 + 4 x492 - 5 x542 <= 0
 c193: 4 x43 + 4 x93 + 4 x143 + 4 x193 + 4 x243 + 4 x293 + 4 x343 + 4 x393
       + 4 x443 + 4 x493 - 5 x543 <= 0
 c194: 4 x44 + 4 x94 + 4 x144 + 4 x194 + 4 x244 + 4 x294 + 4 x344 + 4 x394
       + 4 x444 + 4 x494 - 5 x544 <= 0
 c195: 4 x45 + 4 x95 + 4 x145 + 4 x195 + 4 x245 + 4 x295 + 4 x345 + 4 x395
       + 4 x445 + 4 x495 - 5 x545 <= 0
 c196: 4 x46 + 4 x96 + 4 x146 + 4 x196 + 4 x246 + 4 x296 + 4 x346 + 4 x396
       + 4 x446 + 4 x496 - 5 x546 <= 0
 c197: 4 x47 + 4 x97 + 4 x147 + 4 x197 + 4 x247 + 4 x297 + 4 x347 + 4 x397
       + 4 x447 + 4 x497 - 5 x547 <= 0
 c198: 4 x48 + 4 x98 + 4 x148 + 4 x198 + 4 x248 + 4 x298 + 4 x348 + 4 x398
       + 4 x448 + 4 x498 - 5 x548 <= 0
 c199: 4 x49 + 4 x99 + 4 x149 + 4 x199 + 4 x249 + 4 x299 + 4 x349 + 4 x399
       + 4 x449 + 4 x499 - 5 x549 <= 0
 c200: 4 x50 + 4 x100 + 4 x150 + 4 x200 + 4 x250 + 4 x300 + 4 x350 + 4 x400
       + 4 x450 + 4 x500 - 5 x550 <= 0
Bounds
 0 <= x1 <= 1
 0 <= x2 <= 1
 0 <= x3 <= 1
 0 <= x4 <= 1
 0 <= x5 <= 1
 0 <= x6 <= 1
 0 <= x7 <= 1
 0 <= x8 <= 1
 0 <= x9 <= 1
 0 <= x10 <= 1
 0 <= x11 <= 1
 0 <= x12 <= 1
 0 <= x13 <= 1
 0 <= x14 <= 1
 0 <= x15 <= 1
 0 <= x16 <= 1
 0 <= x17 <= 1
 0 <= x18 <= 1
 0 <= x19 <= 1
 0 <= x20 <= 1
 0 <= x21 <= 1
 0 <= x22 <= 1
 0 <= x23 <= 1
 0 <= x24 <= 1
 0 <= x25 <= 1
 0 <= x26 <= 1
 0 <= x27 <= 1
 0 <= x28 <= 1
 0 <= x29 <= 1
 0 <= x30 <= 1
 0 <= x31 <= 1
 0 <= x32 <= 1
 0 <= x33 <= 1
 0 <= x34 <= 1
 0 <= x35 <= 1
 0 <= x36 <= 1
 0 <= x37 <= 1
 0 <= x38 <= 1
 0 <= x39 <= 1
 0 <= x40 <= 1
 0 <= x41 <= 1
 0 <= x42 <= 1
 0 <= x43 <= 1
 0 <= x44 <= 1
 0 <= x45 <= 1
 0 <= x46 <= 1
 0 <= x47 <= 1
 0 <= x48 <= 1
 0 <= x49 <= 1
 0 <= x50 <= 1
 0 <= x51 <= 1
 0 <= x52 <= 1
 0 <= x53 <= 1
 0 <= x54 <= 1
 0 <= x55 <= 1
 0 <= x56 <= 1
 0 <= x57 <= 1
 0 <= x58 <= 1
 0 <= x59 <= 1
 0 <= x60 <= 1
 0 <= x61 <= 1
 0 <= x62 <= 1
 0 <= x63 <= 1
 0 <= x64 <= 1
 0 <= x65 <= 1
 0 <= x66 <= 1
 0 <= x67 <= 1
 0 <= x68 <= 1
 0 <= x69 <= 1
 0 <= x70 <= 1
 0 <= x71 <= 1
 0 <= x72 <= 1
 0 <= x73 <= 1
 0 <= x74 <= 1
 0 <= x75 <= 1
 0 <= x76 <= 1
 0 <= x77 <= 1
 0 <= x78 <= 1
 0 <= x79 <= 1
 0 <= x80 <= 1
 0 <= x81 <= 1
 0 <= x82 <= 1
 0 <= x83 <= 1
 0 <= x84 <= 1
 0 <= x85 <= 1
 0 <= x86 <= 1
 0 <= x87 <= 1
 0 <= x88 <= 1
 0 <= x89 <= 1
 0 <= x90 <= 1
 0 <= x91 <= 1
 0 <= x92 <= 1
 0 <= x93 <= 1
 0 <= x94 <= 1
 0 <= x95 <= 1
 0 <= x96 <= 1
 0 <= x97 <= 1
 0 <= x98 <= 1
 0 <= x99 <= 1
 0 <= x100 <= 1
 0 <= x101 <= 1
 0 <= x102 <= 1
 0 <= x103 <= 1
 0 <= x104 <= 1
 0 <= x105 <= 1
 0 <= x106 <= 1
 0 <= x107 <= 1
 0 <= x108 <= 1
 0 <= x109 <= 1
 0 <= x110 <= 1
 0 <= x111 <= 1
 0 <= x112 <= 1
 0 <= x113 <= 1
 0 <= x114 <= 1
 0 <= x115 <= 1
 0 <= x116 <= 1
 0 <= x117 <= 1
 0 <= x118 <= 1
 0 <= x119 <= 1
 0 <= x120 <= 1
 0 <= x121 <= 1
 0 <= x122 <= 1
 0 <= x123 <= 1
 0 <= x124 <= 1
 0 <= x125 <= 1
 0 <= x126 <= 1
 0 <= x127 <= 1
 0 <= x128 <= 1
 0 <= x129 <= 1
 0 <= x130 <= 1
 0 <= x131 <= 1
 0 <= x132 <= 1
 0 <= x133 <= 1
 0 <= x134 <= 1
 0 <= x135 <= 1
 0 <= x136 <= 1
 0 <= x137 <= 1
 0 <= x138 <= 1
 0 <= x139 <= 1
 0 <= x140 <= 1
 0 <= x141 <= 1
 0 <= x142 <= 1
 0 <= x143 <= 1
 0 <= x144 <= 1
 0 <= x145 <= 1
 0 <= x146 <= 1
 0 <= x147 <= 1
 0 <= x148 <= 1
 0 <= x149 <= 1
 0 <= x150 <= 1
 0 <= x151 <= 1
 0 <= x152 <= 1
 0 <= x153 <= 1
 0 <= x154 <= 1
 0 <= x155 <= 1
 0 <= x156 <= 1
 0 <= x157 <= 1
 0 <= x158 <= 1
 0 <= x159 <= 1
 0 <= x160 <= 1
 0 <= x161 <= 1
 0 <= x162 <= 1
 0 <= x163 <= 1
 0 <= x164 <= 1
 0 <= x165 <= 1
 0 <= x166 <= 1
 0 <= x167 <= 1
 0 <= x168 <= 1
 0 <= x169 <= 1
 0 <= x170 <= 1
 0 <= x171 <= 1
 0 <= x172 <= 1
 0 <= x173 <= 1
 0 <= x174 <= 1
 0 <= x175 <= 1
 0 <= x176 <= 1
 0 <= x177 <= 1
 0 <= x178 <= 1
 0 <= x179 <= 1
 0 <= x180 <= 1
 0 <= x181 <= 1
 0 <= x182 <= 1
 0 <= x183 <= 1
 0 <= x184 <= 1
 0 <= x185 <= 1
 0 <= x186 <= 1
 0 <= x187 <= 1
 0 <= x188 <= 1
 0 <= x189 <= 1
 0 <= x190 <= 1
 0 <= x191 <= 1
 0 <= x192 <= 1
 0 <= x193 <= 1
 0 <= x194 <= 1
 0 <= x195 <= 1
 0 <= x196 <= 1
 0 <= x197 <= 1
 0 <= x198 <= 1
 0 <= x199 <= 1
 0 <= x200 <= 1
 0 <= x201 <= 1
 0 <= x202 <= 1
 0 <= x203 <= 1
 0 <= x204 <= 1
 0 <= x205 <= 1
 0 <= x206 <= 1
 0 <= x207 <= 1
 0 <= x208 <= 1
 0 <= x209 <= 1
 0 <= x210 <= 1
 0 <= x211 <= 1
 0 <= x212 <= 1
 0 <= x213 <= 1
 0 <= x214 <= 1
 0 <= x215 <= 1
 0 <= x216 <= 1
 0 <= x217 <= 1
 0 <= x218 <= 1
 0 <= x219 <= 1
 0 <= x220 <= 1
 0 <= x221 <= 1
 0 <= x222 <= 1
 0 <= x223 <= 1
 0 <= x224 <= 1
 0 <= x225 <= 1
 0 <= x226 <= 1
 0 <= x227 <= 1
 0 <= x228 <= 1
 0 <= x229 <= 1
 0 <= x230 <= 1
 0 <= x231 <= 1
 0 <= x232 <= 1
 0 <= x233 <= 1
 0 <= x234 <= 1
 0 <= x235 <= 1
 0 <= x236 <= 1
 0 <= x237 <= 1
 0 <= x238 <= 1
 0 <= x239 <= 1
 0 <= x240 <= 1
 0 <= x241 <= 1
 0 <= x242 <= 1
 0 <= x243 <= 1
 0 <= x244 <= 1
 0 <= x245 <= 1
 0 <= x246 <= 1
 0 <= x247 <= 1
 0 <= x248 <= 1
 0 <= x249 <= 1
 0 <= x250 <= 1
 0 <= x251 <= 1
 0 <= x252 <= 1
 0 <= x253 <= 1
 0 <= x254 <= 1
 0 <= x255 <= 1
 0 <= x256 <= 1
 0 <= x257 <= 1
 0 <= x258 <= 1
 0 <= x259 <= 1
 0 <= x260 <= 1
 0 <= x261 <= 1
 0 <= x262 <= 1
 0 <= x263 <= 1
 0 <= x264 <= 1
 0 <= x265 <= 1
 0 <= x266 <= 1
 0 <= x267 <= 1
 0 <= x268 <= 1
 0 <= x269 <= 1
 0 <= x270 <= 1
 0 <= x271 <= 1
 0 <= x272 <= 1
 0 <= x273 <= 1
 0 <= x274 <= 1
 0 <= x275 <= 1
 0 <= x276 <= 1
 0 <= x277 <= 1
 0 <= x278 <= 1
 0 <= x279 <= 1
 0 <= x280 <= 1
 0 <= x281 <= 1
 0 <= x282 <= 1
 0 <= x283 <= 1
 0 <= x284 <= 1
 0 <= x285 <= 1
 0 <= x286 <= 1
 0 <= x287 <= 1
 0 <= x288 <= 1
 0 <= x289 <= 1
 0 <= x290 <= 1
 0 <= x291 <= 1
 0 <= x292 <= 1
 0 <= x293 <= 1
 0 <= x294 <= 1
 0 <= x295 <= 1
 0 <= x296 <= 1
 0 <= x297 <= 1
 0 <= x298 <= 1
 0 <= x299 <= 1
 0 <= x300 <= 1
 0 <= x301 <= 1
 0 <= x302 <= 1
 0 <= x303 <= 1
 0 <= x304 <= 1
 0 <= x305 <= 1
 0 <= x306 <= 1
 0 <= x307 <= 1
 0 <= x308 <= 1
 0 <= x309 <= 1
 0 <= x310 <= 1
 0 <= x311 <= 1
 0 <= x312 <= 1
 0 <= x313 <= 1
 0 <= x314 <= 1
 0 <= x315 <= 1
 0 <= x316 <= 1
 0 <= x317 <= 1
 0 <= x318 <= 1
 0 <= x319 <= 1
 0 <= x320 <= 1
 0 <= x321 <= 1
 0 <= x322 <= 1
 0 <= x323 <= 1
 0 <= x324 <= 1
 0 <= x325 <= 1
 0 <= x326 <= 1
 0 <= x327 <= 1
 0 <= x328 <= 1
 0 <= x329 <= 1
 0 <= x330 <= 1
 0 <= x331 <= 1
 0 <= x332 <= 1
 0 <= x333 <= 1
 0 <= x334 <= 1
 0 <= x335 <= 1
 0 <= x336 <= 1
 0 <= x337 <= 1
 0 <= x338 <= 1
 0 <= x339 <= 1
 0 <= x340 <= 1
 0 <= x341 <= 1
 0 <= x342 <= 1
 0 <= x343 <= 1
 0 <= x344 <= 1
 0 <= x345 <= 1
 0 <= x346 <= 1
 0 <= x347 <= 1
 0 <= x348 <= 1
 0 <= x349 <= 1
 0 <= x350 <= 1
 0 <= x351 <= 1
 0 <= x352 <= 1
 0 <= x353 <= 1
 0 <= x354 <= 1
 0 <= x355 <= 1
 0 <= x356 <= 1
 0 <= x357 <= 1
 0 <= x358 <= 1
 0 <= x359 <= 1
 0 <= x360 <= 1
 0 <= x361 <= 1
 0 <= x362 <= 1
 0 <= x363 <= 1
 0 <= x364 <= 1
 0 <= x365 <= 1
 0 <= x366 <= 1
 0 <= x367 <= 1
 0 <= x368 <= 1
 0 <= x369 <= 1
 0 <= x370 <= 1
 0 <= x371 <= 1
 0 <= x372 <= 1
 0 <= x373 <= 1
 0 <= x374 <= 1
 0 <= x375 <= 1
 0 <= x376 <= 1
 0 <= x377 <= 1
 0 <= x378 <= 1
 0 <= x379 <= 1
 0 <= x380 <= 1
 0 <= x381 <= 1
 0 <= x382 <= 1
 0 <= x383 <= 1
 0 <= x384 <= 1
 0 <= x385 <= 1
 0 <= x386 <= 1
 0 <= x387 <= 1
 0 <= x388 <= 1
 0 <= x389 <= 1
 0 <= x390 <= 1
 0 <= x391 <= 1
 0 <= x392 <= 1
 0 <= x393 <= 1
 0 <= x394 <= 1
 0 <= x395 <= 1
 0 <= x396 <= 1
 0 <= x397 <= 1
 0 <= x398 <= 1
 0 <= x399 <= 1
 0 <= x400 <= 1
 0 <= x401 <= 1
 0 <= x402 <= 1
 0 <= x403 <= 1
 0 <= x404 <= 1
 0 <= x405 <= 1
 0 <= x406 <= 1
 0 <= x407 <= 1
 0 <= x408 <= 1
 0 <= x409 <= 1
 0 <= x410 <= 1
 0 <= x411 <= 1
 0 <= x412 <= 1
 0 <= x413 <= 1
 0 <= x414 <= 1
 0 <= x415 <= 1
 0 <= x416 <= 1
 0 <= x417 <= 1
 0 <= x418 <= 1
 0 <= x419 <= 1
 0 <= x420 <= 1
 0 <= x421 <= 1
 0 <= x422 <= 1
 0 <= x423 <= 1
 0 <= x424 <= 1
 0 <= x425 <= 1
 0 <= x426 <= 1
 0 <= x427 <= 1
 0 <= x428 <= 1
 0 <= x429 <= 1
 0 <= x430 <= 1
 0 <= x431 <= 1
 0 <= x432 <= 1
 0 <= x433 <= 1
 0 <= x434 <= 1
 0 <= x435 <= 1
 0 <= x436 <= 1
 0 <= x437 <= 1
 0 <= x438 <= 1
 0 <= x439 <= 1
 0 <= x440 <= 1
 0 <= x441 <= 1
 0 <= x442 <= 1
 0 <= x443 <= 1
 0 <= x444 <= 1
 0 <= x445 <= 1
 0 <= x446 <= 1
 0 <= x447 <= 1
 0 <= x448 <= 1
 0 <= x449 <= 1
 0 <= x450 <= 1
 0 <= x451 <= 1
 0 <= x452 <= 1
 0 <= x453 <= 1
 0 <= x454 <= 1
 0 <= x455 <= 1
 0 <= x456 <= 1
 0 <= x457 <= 1
 0 <= x458 <= 1
 0 <= x459 <= 1
 0 <= x460 <= 1
 0 <= x461 <= 1
 0 <= x462 <= 1
 0 <= x463 <= 1
 0 <= x464 <= 1
 0 <= x465 <= 1
 0 <= x466 <= 1
 0 <= x467 <= 1
 0 <= x468 <= 1
 0 <= x469 <= 1
 0 <= x470 <= 1
 0 <= x471 <= 1
 0 <= x472 <= 1
 0 <= x473 <= 1
 0 <= x474 <= 1
 0 <= x475 <= 1
 0 <= x476 <= 1
 0 <= x477 <= 1
 0 <= x478 <= 1
 0 <= x479 <= 1
 0 <= x480 <= 1
 0 <= x481 <= 1
 0 <= x482 <= 1
 0 <= x483 <= 1
 0 <= x484 <= 1
 0 <= x485 <= 1
 0 <= x486 <= 1
 0 <= x487 <= 1
 0 <= x488 <= 1
 0 <= x489 <= 1
 0 <= x490 <= 1
 0 <= x491 <= 1
 0 <= x492 <= 1
 0 <= x493 <= 1
 0 <= x494 <= 1
 0 <= x495 <= 1
 0 <= x496 <= 1
 0 <= x497 <= 1
 0 <= x498 <= 1
 0 <= x499 <= 1
 0 <= x500 <= 1
 0 <= x501 <= 1
 0 <= x502 <= 1
 0 <= x503 <= 1
 0 <= x504 <= 1
 0 <= x505 <= 1
 0 <= x506 <= 1
 0 <= x507 <= 1
 0 <= x508 <= 1
 0 <= x509 <= 1
 0 <= x510 <= 1
 0 <= x511 <= 1
 0 <= x512 <= 1
 0 <= x513 <= 1
 0 <= x514 <= 1
 0 <= x515 <= 1
 0 <= x516 <= 1
 0 <= x517 <= 1
 0 <= x518 <= 1
 0 <= x519 <= 1
 0 <= x520 <= 1
 0 <= x521 <= 1
 0 <= x522 <= 1
 0 <= x523 <= 1
 0 <= x524 <= 1
 0 <= x525 <= 1
 0 <= x526 <= 1
 0 <= x527 <= 1
 0 <= x528 <= 1
 0 <= x529 <= 1
 0 <= x530 <= 1
 0 <= x531 <= 1
 0 <= x532 <= 1
 0 <= x533 <= 1
 0 <= x534 <= 1
 0 <= x535 <= 1
 0 <= x536 <= 1
 0 <= x537 <= 1
 0 <= x538 <= 1
 0 <= x539 <= 1
 0 <= x540 <= 1
 0 <= x541 <= 1
 0 <= x542 <= 1
 0 <= x543 <= 1
 0 <= x544 <= 1
 0 <= x545 <= 1
 0 <= x546 <= 1
 0 <= x547 <= 1
 0 <= x548 <= 1
 0 <= x549 <= 1
 0 <= x550 <= 1
Binaries
 x501  x502  x503  x504  x505  x506  x507  x508  x509  x510  x511  x512  x513 
 x514  x515  x516  x517  x518  x519  x520  x521  x522  x523  x524  x525  x526 
 x527  x528  x529  x530  x531  x532  x533  x534  x535  x536  x537  x538  x539 
 x540  x541  x542  x543  x544  x545  x546  x547  x548  x549  x550 
End
